NAME: cum200.tsp
TYPE: TSP
COMMENT: User-generated TSP file
DIMENSION: 1000
EDGE_WEIGHT_TYPE: EUC_2D
NODE_COORD_SECTION
1 36.0 83.0
2 42.0 67.0
3 296.0 902.0
4 524.0 802.0
5 745.0 955.0
6 773.0 530.0
7 801.0 612.0
8 972.0 461.0
9 707.0 207.0
10 659.0 595.0
11 539.0 251.0
12 657.0 185.0
13 619.0 67.0
14 525.0 850.0
15 207.0 439.0
16 799.0 148.0
17 235.0 57.0
18 986.0 526.0
19 635.0 634.0
20 537.0 879.0
21 833.0 906.0
22 750.0 826.0
23 739.0 658.0
24 550.0 853.0
25 879.0 559.0
26 471.0 477.0
27 475.0 741.0
28 771.0 189.0
29 926.0 479.0
30 384.0 845.0
31 163.0 626.0
32 574.0 919.0
33 114.0 12.0
34 549.0 718.0
35 751.0 734.0
36 924.0 315.0
37 786.0 766.0
38 117.0 290.0
39 638.0 342.0
40 316.0 423.0
41 914.0 377.0
42 193.0 165.0
43 191.0 345.0
44 419.0 632.0
45 260.0 840.0
46 78.0 104.0
47 59.0 541.0
48 463.0 821.0
49 355.0 338.0
50 614.0 874.0
51 666.0 855.0
52 436.0 882.0
53 665.0 700.0
54 518.0 348.0
55 260.0 951.0
56 243.0 514.0
57 289.0 941.0
58 357.0 1000.0
59 126.0 397.0
60 427.0 532.0
61 574.0 813.0
62 983.0 471.0
63 997.0 339.0
64 937.0 741.0
65 384.0 425.0
66 598.0 418.0
67 182.0 512.0
68 57.0 44.0
69 229.0 579.0
70 28.0 40.0
71 14.0 89.0
72 60.0 533.0
73 99.0 281.0
74 857.0 390.0
75 18.0 587.0
76 30.0 929.0
77 613.0 138.0
78 32.0 29.0
79 589.0 557.0
80 932.0 484.0
81 121.0 151.0
82 600.0 138.0
83 124.0 72.0
84 835.0 946.0
85 659.0 172.0
86 54.0 441.0
87 187.0 448.0
88 405.0 788.0
89 890.0 870.0
90 923.0 672.0
91 897.0 21.0
92 704.0 322.0
93 848.0 870.0
94 658.0 303.0
95 361.0 278.0
96 131.0 906.0
97 357.0 558.0
98 883.0 54.0
99 193.0 613.0
100 546.0 813.0
101 737.0 40.0
102 136.0 485.0
103 357.0 368.0
104 972.0 466.0
105 630.0 973.0
106 434.0 124.0
107 378.0 611.0
108 338.0 68.0
109 225.0 429.0
110 589.0 734.0
111 286.0 227.0
112 213.0 865.0
113 949.0 536.0
114 627.0 218.0
115 704.0 133.0
116 124.0 207.0
117 518.0 876.0
118 967.0 387.0
119 777.0 350.0
120 108.0 588.0
121 212.0 362.0
122 760.0 915.0
123 678.0 603.0
124 728.0 139.0
125 546.0 25.0
126 950.0 767.0
127 57.0 318.0
128 970.0 241.0
129 586.0 107.0
130 687.0 543.0
131 319.0 181.0
132 38.0 804.0
133 791.0 911.0
134 473.0 207.0
135 873.0 561.0
136 373.0 859.0
137 494.0 187.0
138 3.0 472.0
139 133.0 409.0
140 271.0 640.0
141 950.0 780.0
142 38.0 307.0
143 785.0 685.0
144 947.0 781.0
145 218.0 892.0
146 340.0 638.0
147 207.0 889.0
148 555.0 9.0
149 610.0 875.0
150 452.0 226.0
151 20.0 254.0
152 682.0 711.0
153 392.0 135.0
154 121.0 324.0
155 629.0 268.0
156 33.0 148.0
157 337.0 333.0
158 233.0 366.0
159 46.0 621.0
160 475.0 575.0
161 693.0 598.0
162 421.0 217.0
163 631.0 758.0
164 948.0 34.0
165 869.0 944.0
166 49.0 723.0
167 429.0 63.0
168 321.0 864.0
169 83.0 921.0
170 404.0 33.0
171 941.0 573.0
172 114.0 707.0
173 602.0 290.0
174 764.0 373.0
175 40.0 709.0
176 24.0 36.0
177 452.0 162.0
178 917.0 758.0
179 453.0 963.0
180 240.0 218.0
181 849.0 752.0
182 230.0 460.0
183 280.0 687.0
184 927.0 505.0
185 137.0 798.0
186 239.0 270.0
187 491.0 904.0
188 210.0 851.0
189 260.0 426.0
190 413.0 595.0
191 128.0 431.0
192 204.0 231.0
193 723.0 135.0
194 137.0 120.0
195 294.0 195.0
196 996.0 753.0
197 766.0 878.0
198 757.0 898.0
199 394.0 869.0
200 172.0 47.0
201 72.0 454.0
202 566.0 863.0
203 380.0 756.0
204 330.0 485.0
205 881.0 989.0
206 434.0 550.0
207 954.0 428.0
208 30.0 221.0
209 116.0 191.0
210 905.0 164.0
211 452.0 147.0
212 66.0 419.0
213 987.0 146.0
214 79.0 413.0
215 419.0 313.0
216 771.0 812.0
217 504.0 44.0
218 28.0 757.0
219 835.0 299.0
220 955.0 241.0
221 765.0 506.0
222 914.0 795.0
223 953.0 238.0
224 804.0 418.0
225 720.0 143.0
226 738.0 728.0
227 723.0 297.0
228 667.0 214.0
229 286.0 408.0
230 531.0 278.0
231 736.0 40.0
232 322.0 49.0
233 46.0 542.0
234 107.0 230.0
235 840.0 197.0
236 252.0 664.0
237 226.0 807.0
238 220.0 13.0
239 332.0 822.0
240 23.0 112.0
241 960.0 376.0
242 131.0 137.0
243 146.0 619.0
244 223.0 524.0
245 251.0 888.0
246 346.0 456.0
247 316.0 719.0
248 515.0 260.0
249 301.0 113.0
250 56.0 410.0
251 599.0 381.0
252 221.0 465.0
253 198.0 21.0
254 173.0 223.0
255 852.0 456.0
256 544.0 116.0
257 810.0 575.0
258 583.0 757.0
259 787.0 782.0
260 558.0 789.0
261 60.0 948.0
262 391.0 986.0
263 833.0 82.0
264 595.0 250.0
265 194.0 871.0
266 582.0 728.0
267 197.0 66.0
268 82.0 877.0
269 690.0 569.0
270 426.0 558.0
271 662.0 882.0
272 719.0 882.0
273 277.0 796.0
274 998.0 938.0
275 20.0 771.0
276 58.0 612.0
277 112.0 932.0
278 70.0 124.0
279 565.0 390.0
280 790.0 285.0
281 730.0 917.0
282 643.0 353.0
283 53.0 684.0
284 527.0 959.0
285 360.0 367.0
286 422.0 52.0
287 146.0 510.0
288 442.0 40.0
289 270.0 124.0
290 577.0 375.0
291 232.0 402.0
292 56.0 631.0
293 643.0 705.0
294 651.0 647.0
295 387.0 457.0
296 373.0 132.0
297 436.0 984.0
298 604.0 676.0
299 973.0 208.0
300 481.0 821.0
301 716.0 995.0
302 894.0 532.0
303 803.0 136.0
304 787.0 3.0
305 197.0 522.0
306 760.0 598.0
307 850.0 528.0
308 170.0 605.0
309 610.0 541.0
310 64.0 590.0
311 652.0 738.0
312 31.0 416.0
313 614.0 780.0
314 22.0 165.0
315 950.0 616.0
316 371.0 393.0
317 230.0 387.0
318 116.0 89.0
319 114.0 347.0
320 418.0 138.0
321 571.0 297.0
322 158.0 667.0
323 933.0 382.0
324 42.0 990.0
325 444.0 163.0
326 899.0 132.0
327 684.0 150.0
328 583.0 721.0
329 16.0 690.0
330 750.0 118.0
331 781.0 138.0
332 707.0 109.0
333 270.0 318.0
334 246.0 208.0
335 107.0 244.0
336 675.0 476.0
337 324.0 929.0
338 93.0 114.0
339 510.0 942.0
340 725.0 889.0
341 606.0 525.0
342 862.0 373.0
343 204.0 38.0
344 668.0 947.0
345 148.0 466.0
346 522.0 27.0
347 207.0 159.0
348 178.0 396.0
349 196.0 641.0
350 946.0 292.0
351 390.0 803.0
352 841.0 672.0
353 454.0 149.0
354 746.0 181.0
355 159.0 758.0
356 324.0 761.0
357 217.0 658.0
358 886.0 950.0
359 179.0 259.0
360 595.0 376.0
361 740.0 244.0
362 273.0 465.0
363 853.0 756.0
364 958.0 588.0
365 515.0 263.0
366 598.0 677.0
367 943.0 601.0
368 609.0 665.0
369 349.0 16.0
370 572.0 909.0
371 24.0 766.0
372 589.0 640.0
373 149.0 908.0
374 954.0 576.0
375 721.0 496.0
376 899.0 559.0
377 665.0 786.0
378 345.0 518.0
379 958.0 299.0
380 757.0 558.0
381 279.0 644.0
382 425.0 161.0
383 763.0 760.0
384 76.0 85.0
385 668.0 844.0
386 793.0 352.0
387 696.0 315.0
388 708.0 984.0
389 425.0 344.0
390 990.0 226.0
391 100.0 473.0
392 34.0 872.0
393 233.0 64.0
394 978.0 907.0
395 350.0 673.0
396 491.0 740.0
397 351.0 631.0
398 862.0 284.0
399 409.0 292.0
400 214.0 115.0
401 793.0 555.0
402 956.0 689.0
403 926.0 289.0
404 839.0 78.0
405 844.0 787.0
406 900.0 802.0
407 348.0 712.0
408 424.0 536.0
409 917.0 694.0
410 299.0 634.0
411 546.0 9.0
412 952.0 110.0
413 408.0 580.0
414 62.0 518.0
415 284.0 590.0
416 89.0 340.0
417 896.0 405.0
418 520.0 561.0
419 858.0 574.0
420 651.0 344.0
421 642.0 974.0
422 906.0 394.0
423 907.0 795.0
424 544.0 64.0
425 54.0 709.0
426 8.0 178.0
427 759.0 429.0
428 157.0 327.0
429 598.0 450.0
430 758.0 381.0
431 254.0 419.0
432 567.0 649.0
433 24.0 538.0
434 693.0 515.0
435 418.0 999.0
436 518.0 288.0
437 662.0 787.0
438 180.0 534.0
439 203.0 373.0
440 569.0 617.0
441 386.0 5.0
442 395.0 692.0
443 506.0 696.0
444 959.0 84.0
445 562.0 887.0
446 939.0 756.0
447 483.0 468.0
448 737.0 392.0
449 240.0 545.0
450 624.0 894.0
451 828.0 631.0
452 127.0 247.0
453 389.0 301.0
454 836.0 228.0
455 498.0 406.0
456 360.0 212.0
457 52.0 592.0
458 51.0 807.0
459 43.0 128.0
460 99.0 902.0
461 308.0 840.0
462 692.0 976.0
463 457.0 276.0
464 925.0 852.0
465 649.0 429.0
466 593.0 391.0
467 403.0 789.0
468 24.0 985.0
469 693.0 445.0
470 962.0 871.0
471 423.0 670.0
472 975.0 45.0
473 318.0 831.0
474 19.0 657.0
475 550.0 254.0
476 622.0 554.0
477 814.0 170.0
478 263.0 110.0
479 896.0 428.0
480 638.0 701.0
481 92.0 527.0
482 241.0 192.0
483 619.0 808.0
484 300.0 36.0
485 984.0 174.0
486 135.0 812.0
487 695.0 986.0
488 608.0 911.0
489 492.0 278.0
490 348.0 680.0
491 927.0 302.0
492 621.0 682.0
493 591.0 292.0
494 919.0 545.0
495 45.0 853.0
496 669.0 445.0
497 757.0 329.0
498 759.0 637.0
499 499.0 296.0
500 269.0 943.0
501 573.0 690.0
502 65.0 960.0
503 344.0 861.0
504 90.0 998.0
505 959.0 152.0
506 375.0 668.0
507 57.0 225.0
508 327.0 544.0
509 827.0 512.0
510 770.0 108.0
511 43.0 392.0
512 933.0 468.0
513 295.0 526.0
514 821.0 393.0
515 107.0 34.0
516 10.0 287.0
517 470.0 730.0
518 426.0 499.0
519 880.0 522.0
520 810.0 715.0
521 542.0 565.0
522 849.0 227.0
523 628.0 111.0
524 843.0 424.0
525 668.0 253.0
526 153.0 839.0
527 511.0 339.0
528 758.0 646.0
529 741.0 987.0
530 462.0 920.0
531 170.0 346.0
532 715.0 269.0
533 911.0 813.0
534 410.0 156.0
535 358.0 189.0
536 920.0 990.0
537 248.0 521.0
538 527.0 420.0
539 170.0 102.0
540 485.0 44.0
541 503.0 913.0
542 627.0 160.0
543 952.0 809.0
544 998.0 359.0
545 498.0 952.0
546 504.0 741.0
547 686.0 722.0
548 23.0 715.0
549 769.0 640.0
550 33.0 755.0
551 295.0 47.0
552 695.0 826.0
553 35.0 494.0
554 996.0 483.0
555 480.0 979.0
556 725.0 209.0
557 288.0 234.0
558 280.0 901.0
559 197.0 633.0
560 627.0 163.0
561 403.0 554.0
562 824.0 144.0
563 141.0 901.0
564 736.0 973.0
565 437.0 320.0
566 856.0 574.0
567 625.0 202.0
568 845.0 808.0
569 459.0 764.0
570 659.0 362.0
571 925.0 595.0
572 96.0 393.0
573 386.0 477.0
574 525.0 652.0
575 886.0 755.0
576 203.0 16.0
577 908.0 701.0
578 275.0 526.0
579 765.0 820.0
580 882.0 348.0
581 247.0 255.0
582 833.0 677.0
583 720.0 21.0
584 377.0 866.0
585 11.0 99.0
586 548.0 778.0
587 11.0 300.0
588 360.0 857.0
589 222.0 351.0
590 199.0 738.0
591 159.0 451.0
592 930.0 146.0
593 337.0 704.0
594 476.0 249.0
595 172.0 345.0
596 970.0 103.0
597 974.0 899.0
598 68.0 134.0
599 146.0 735.0
600 694.0 32.0
601 19.0 321.0
602 577.0 358.0
603 728.0 192.0
604 691.0 359.0
605 339.0 63.0
606 693.0 458.0
607 223.0 432.0
608 655.0 957.0
609 928.0 133.0
610 841.0 339.0
611 997.0 609.0
612 550.0 111.0
613 405.0 351.0
614 673.0 852.0
615 680.0 612.0
616 572.0 357.0
617 535.0 711.0
618 663.0 948.0
619 832.0 409.0
620 971.0 571.0
621 675.0 98.0
622 332.0 4.0
623 923.0 421.0
624 169.0 610.0
625 921.0 42.0
626 58.0 323.0
627 204.0 238.0
628 875.0 908.0
629 734.0 988.0
630 543.0 258.0
631 201.0 165.0
632 400.0 284.0
633 582.0 84.0
634 394.0 520.0
635 70.0 184.0
636 829.0 601.0
637 417.0 547.0
638 427.0 363.0
639 572.0 677.0
640 852.0 472.0
641 12.0 886.0
642 507.0 678.0
643 248.0 2.0
644 635.0 227.0
645 390.0 669.0
646 866.0 38.0
647 276.0 244.0
648 148.0 795.0
649 883.0 138.0
650 917.0 747.0
651 662.0 325.0
652 566.0 269.0
653 150.0 2.0
654 769.0 613.0
655 748.0 487.0
656 896.0 423.0
657 941.0 703.0
658 308.0 557.0
659 227.0 672.0
660 488.0 97.0
661 495.0 662.0
662 751.0 862.0
663 270.0 200.0
664 278.0 130.0
665 820.0 85.0
666 444.0 511.0
667 464.0 915.0
668 329.0 71.0
669 137.0 786.0
670 574.0 183.0
671 138.0 436.0
672 350.0 310.0
673 580.0 815.0
674 759.0 647.0
675 184.0 870.0
676 411.0 751.0
677 201.0 322.0
678 650.0 389.0
679 996.0 596.0
680 687.0 129.0
681 959.0 587.0
682 1000.0 141.0
683 700.0 719.0
684 966.0 692.0
685 923.0 791.0
686 255.0 888.0
687 724.0 67.0
688 509.0 69.0
689 631.0 143.0
690 625.0 361.0
691 545.0 856.0
692 126.0 382.0
693 181.0 919.0
694 338.0 756.0
695 937.0 621.0
696 681.0 22.0
697 424.0 991.0
698 574.0 893.0
699 630.0 354.0
700 99.0 765.0
701 681.0 629.0
702 774.0 137.0
703 387.0 909.0
704 160.0 374.0
705 332.0 349.0
706 942.0 325.0
707 651.0 403.0
708 937.0 86.0
709 998.0 29.0
710 26.0 453.0
711 835.0 92.0
712 920.0 730.0
713 117.0 860.0
714 564.0 547.0
715 744.0 123.0
716 404.0 713.0
717 434.0 966.0
718 602.0 316.0
719 54.0 949.0
720 808.0 440.0
721 923.0 926.0
722 55.0 144.0
723 660.0 60.0
724 650.0 933.0
725 905.0 651.0
726 654.0 957.0
727 373.0 291.0
728 760.0 694.0
729 258.0 962.0
730 809.0 73.0
731 533.0 25.0
732 57.0 70.0
733 578.0 334.0
734 903.0 800.0
735 158.0 2.0
736 991.0 95.0
737 296.0 247.0
738 364.0 765.0
739 868.0 125.0
740 646.0 493.0
741 594.0 444.0
742 344.0 758.0
743 456.0 555.0
744 265.0 655.0
745 565.0 562.0
746 971.0 538.0
747 182.0 950.0
748 233.0 862.0
749 836.0 785.0
750 746.0 525.0
751 811.0 580.0
752 734.0 658.0
753 525.0 655.0
754 832.0 983.0
755 136.0 371.0
756 121.0 223.0
757 285.0 270.0
758 965.0 559.0
759 620.0 39.0
760 600.0 164.0
761 390.0 907.0
762 988.0 110.0
763 6.0 690.0
764 573.0 343.0
765 120.0 358.0
766 539.0 384.0
767 529.0 516.0
768 170.0 239.0
769 871.0 727.0
770 300.0 991.0
771 45.0 882.0
772 243.0 538.0
773 801.0 129.0
774 208.0 816.0
775 291.0 514.0
776 251.0 82.0
777 26.0 503.0
778 161.0 433.0
779 240.0 976.0
780 62.0 49.0
781 151.0 769.0
782 877.0 147.0
783 925.0 778.0
784 119.0 940.0
785 25.0 524.0
786 426.0 735.0
787 675.0 563.0
788 39.0 637.0
789 981.0 291.0
790 262.0 448.0
791 898.0 580.0
792 637.0 504.0
793 50.0 138.0
794 813.0 295.0
795 827.0 223.0
796 719.0 76.0
797 411.0 831.0
798 859.0 505.0
799 126.0 436.0
800 612.0 319.0
801 557.0 984.0
802 289.0 522.0
803 686.0 821.0
804 930.0 649.0
805 740.0 89.0
806 247.0 412.0
807 252.0 735.0
808 305.0 310.0
809 722.0 935.0
810 311.0 377.0
811 445.0 465.0
812 896.0 826.0
813 789.0 866.0
814 649.0 454.0
815 987.0 763.0
816 805.0 962.0
817 317.0 936.0
818 608.0 117.0
819 812.0 146.0
820 686.0 18.0
821 900.0 46.0
822 711.0 473.0
823 561.0 950.0
824 963.0 524.0
825 6.0 477.0
826 821.0 1000.0
827 360.0 556.0
828 63.0 53.0
829 84.0 507.0
830 857.0 159.0
831 129.0 473.0
832 464.0 333.0
833 55.0 896.0
834 444.0 288.0
835 600.0 450.0
836 582.0 129.0
837 404.0 181.0
838 114.0 533.0
839 546.0 620.0
840 411.0 896.0
841 731.0 511.0
842 338.0 164.0
843 539.0 390.0
844 555.0 313.0
845 143.0 156.0
846 998.0 449.0
847 480.0 167.0
848 696.0 663.0
849 766.0 439.0
850 619.0 997.0
851 480.0 595.0
852 630.0 575.0
853 712.0 357.0
854 994.0 386.0
855 339.0 705.0
856 778.0 854.0
857 860.0 77.0
858 367.0 58.0
859 867.0 778.0
860 954.0 57.0
861 279.0 808.0
862 126.0 419.0
863 659.0 453.0
864 357.0 814.0
865 86.0 572.0
866 588.0 663.0
867 397.0 559.0
868 258.0 856.0
869 418.0 208.0
870 392.0 935.0
871 918.0 376.0
872 617.0 162.0
873 509.0 4.0
874 439.0 595.0
875 520.0 519.0
876 155.0 844.0
877 902.0 361.0
878 687.0 559.0
879 195.0 941.0
880 453.0 969.0
881 481.0 165.0
882 770.0 631.0
883 462.0 821.0
884 53.0 152.0
885 911.0 998.0
886 968.0 255.0
887 128.0 710.0
888 372.0 856.0
889 73.0 54.0
890 943.0 119.0
891 933.0 577.0
892 443.0 764.0
893 850.0 129.0
894 847.0 729.0
895 501.0 308.0
896 607.0 675.0
897 751.0 640.0
898 321.0 693.0
899 860.0 344.0
900 90.0 797.0
901 838.0 614.0
902 308.0 114.0
903 584.0 603.0
904 549.0 941.0
905 772.0 612.0
906 232.0 129.0
907 814.0 140.0
908 656.0 932.0
909 665.0 147.0
910 762.0 771.0
911 705.0 742.0
912 282.0 877.0
913 8.0 788.0
914 143.0 208.0
915 291.0 524.0
916 53.0 746.0
917 551.0 311.0
918 288.0 737.0
919 250.0 286.0
920 106.0 328.0
921 529.0 651.0
922 68.0 661.0
923 837.0 916.0
924 138.0 97.0
925 772.0 249.0
926 158.0 639.0
927 679.0 907.0
928 850.0 569.0
929 267.0 306.0
930 876.0 148.0
931 756.0 615.0
932 495.0 677.0
933 212.0 245.0
934 411.0 142.0
935 872.0 119.0
936 298.0 955.0
937 178.0 880.0
938 647.0 508.0
939 616.0 91.0
940 824.0 601.0
941 748.0 699.0
942 109.0 55.0
943 544.0 317.0
944 583.0 86.0
945 842.0 130.0
946 969.0 302.0
947 268.0 383.0
948 325.0 819.0
949 227.0 932.0
950 43.0 495.0
951 759.0 297.0
952 668.0 621.0
953 67.0 241.0
954 146.0 283.0
955 807.0 452.0
956 863.0 548.0
957 132.0 629.0
958 691.0 230.0
959 294.0 690.0
960 369.0 264.0
961 395.0 338.0
962 893.0 247.0
963 837.0 771.0
964 746.0 778.0
965 272.0 735.0
966 517.0 946.0
967 521.0 23.0
968 442.0 641.0
969 699.0 427.0
970 613.0 259.0
971 181.0 638.0
972 501.0 842.0
973 757.0 402.0
974 482.0 104.0
975 24.0 353.0
976 902.0 292.0
977 876.0 119.0
978 25.0 6.0
979 564.0 679.0
980 520.0 112.0
981 172.0 145.0
982 836.0 573.0
983 391.0 287.0
984 542.0 349.0
985 648.0 892.0
986 966.0 835.0
987 667.0 50.0
988 497.0 584.0
989 609.0 168.0
990 447.0 656.0
991 901.0 142.0
992 679.0 644.0
993 242.0 603.0
994 607.0 421.0
995 170.0 987.0
996 872.0 297.0
997 432.0 15.0
998 582.0 103.0
999 860.0 585.0
1000 521.0 755.0
EOF

